p cnf 102 126
-1 89 -99 -102 0 
-2 79 90 -100 0 
-3 9 24 30 37 56 63 84 91 -99 -102 0 
-4 17 77 92 -100 0 
-5 22 91 -99 -102 0 
-6 64 89 -99 -102 0 
-7 82 93 -99 -102 0 
-5 22 93 -99 -102 0 
-8 16 31 94 -99 -102 0 
-9 3 24 30 37 56 63 84 93 -99 -102 0 
-10 59 94 -99 -102 0 
-11 21 29 53 61 71 93 -99 -102 0 
-6 64 93 -99 -102 0 
-12 92 -100 0 
-13 89 -99 -102 0 
-14 28 65 83 88 89 -99 -102 0 
-15 25 26 85 89 -99 -102 0 
-10 59 89 -99 -102 0 
-16 8 31 89 -99 -102 0 
-17 4 77 89 -99 -102 0 
-18 93 -99 -102 0 
-19 94 -99 -102 0 
-16 8 31 93 -99 -102 0 
-1 -9 3 24 30 37 56 63 84 95 -99 -102 0 
-20 80 -21 11 29 53 61 71 90 -100 0 
-7 82 91 -99 -102 0 
-22 5 94 -99 -102 0 
-23 92 -100 0 
-24 3 9 30 37 56 63 84 92 -100 0 
-7 82 94 -99 -102 0 
-25 15 26 85 -12 92 -100 0 
-9 3 24 30 37 56 63 84 94 -99 -102 0 
-3 9 24 30 37 56 63 84 -26 15 25 85 92 -100 0 
-27 35 36 76 92 -100 0 
-28 14 65 83 88 92 -100 0 
-29 11 21 53 61 71 92 -100 0 
-30 3 9 24 37 56 63 84 96 -99 -102 0 
-31 8 16 97 -99 -102 0 
-5 22 96 -99 -102 0 
-26 15 25 85 -32 96 -99 -102 0 
-33 70 89 -99 -102 0 
-14 28 65 83 88 98 0 
-7 82 98 0 
-34 69 75 92 -100 0 
-28 14 65 83 88 97 -99 -102 0 
-1 98 0 
-35 27 36 76 92 -100 0 
-36 27 35 76 92 -100 0 
-37 3 9 24 30 56 63 84 -26 15 25 85 -38 41 -39 46 90 -100 0 
-40 99 -102 0 
-26 15 25 85 -38 41 -32 96 -99 -102 0 
-21 11 29 53 61 71 -26 15 25 85 -41 38 90 -100 0 
-7 82 96 -99 -102 0 
-42 96 -99 -102 0 
-13 98 0 
-6 64 98 0 
-10 59 98 0 
-43 51 -44 -45 73 -38 41 -46 39 -47 100 0 
-43 51 -44 -46 39 -47 99 -102 0 
-43 51 -44 -32 92 -100 0 
-21 11 29 53 61 71 92 -100 0 
-33 70 98 0 
-15 25 26 85 98 0 
-48 -49 101 -42 -99 -102 0 
-50 101 -42 -99 -102 0 
-36 27 35 76 -51 43 92 -100 0 
-52 96 -99 -102 0 
-40 92 -100 0 
-53 11 21 29 61 71 92 -100 0 
-54 92 -100 0 
-55 92 -100 0 
-31 8 16 -56 3 9 24 30 37 63 84 92 -100 0 
-57 96 -99 -102 0 
-58 96 -99 -102 0 
-59 10 96 -99 -102 0 
-60 96 -99 -102 0 
-61 11 21 29 53 71 96 -99 -102 0 
-62 96 -99 -102 0 
-7 82 -5 22 -63 3 9 24 30 37 56 84 96 -99 -102 0 
-64 6 96 -99 -102 0 
-7 82 -5 22 -65 14 28 83 88 96 -99 -102 0 
-66 96 -99 -102 0 
-48 101 -42 -99 -102 0 
-67 96 -99 -102 0 
-21 11 29 53 61 71 -68 101 -42 -99 -102 0 
-69 34 75 92 -100 0 
-16 8 31 -51 43 92 -100 0 
-70 33 92 -100 0 
-26 15 25 85 92 -100 0 
-71 11 21 29 53 61 96 -99 -102 0 
-72 98 0 
-62 -40 92 -100 0 
-43 51 90 -100 0 
-43 51 96 -99 -102 0 
-40 92 -100 0 
-43 51 -44 -73 45 -74 92 -100 0 
-40 99 -102 0 
-75 34 69 92 -100 0 
-76 27 35 36 98 0 
-77 4 17 94 -99 -102 0 
-78 101 -42 -99 -102 0 
-79 2 92 -100 0 
-21 11 29 53 61 71 -80 20 101 -42 -99 -102 0 
-10 59 -48 101 -42 -99 -102 0 
-31 8 16 89 -99 -102 0 
-46 39 -51 43 92 -100 0 
-81 102 -99 0 
-81 99 -102 0 
-82 7 95 -99 -102 0 
-83 14 28 65 88 92 -100 0 
-51 43 102 -99 0 
-51 43 99 -102 0 
-83 14 28 65 88 -29 11 21 53 61 71 92 -100 0 
-6 64 -80 20 101 -42 -99 -102 0 
-7 82 -5 22 -84 3 9 24 30 37 56 63 96 -99 -102 0 
-85 15 25 26 96 -99 -102 0 
-86 96 -99 -102 0 
-13 -50 101 -42 -99 -102 0 
-87 96 -99 -102 0 
-13 -88 14 28 65 83 96 -99 -102 0 
-7 82 -17 4 77 -63 3 9 24 30 37 56 84 96 -99 -102 0 
-13 -15 25 26 85 -63 3 9 24 30 37 56 84 96 -99 -102 0 
-11 21 29 53 61 71 -25 15 26 85 96 -99 -102 0 
-7 82 -48 101 -42 -99 -102 0 
-37 3 9 24 30 56 63 84 -26 15 25 85 -39 46 -45 73 -51 43 90 -100 0 
-21 11 29 53 61 71 -26 15 25 85 -32 90 -100 0 
